(set-option :auto-config false)
(set-option :produce-unsat-cores false)
(set-option :smt.mbqi.max_iterations 10000000)
(set-option :smt.relevancy 0)
(define-fun e2 ((c0 (_ BitVec 64)) (c1 (_ BitVec 64))) (_ BitVec 64) (_ bv1024 64))
(define-fun e3 ((c0 (_ BitVec 64)) (c1 (_ BitVec 64))) Bool (bvult c0 (e2 c0 c1)))
(define-fun e4 ((c0 (_ BitVec 64)) (c1 (_ BitVec 64))) Bool (bvult c1 (e2 c0 c1)))
(define-fun e5 ((c0 (_ BitVec 64)) (c1 (_ BitVec 64))) Bool (and (e3 c0 c1) (e4 c0 c1)))
(define-fun e6 ((c0 (_ BitVec 64)) (c1 (_ BitVec 64))) Bool (not (e5 c0 c1)))
(declare-fun c7 () Bool)
(define-fun e8 ((c0 (_ BitVec 64)) (c1 (_ BitVec 64))) Bool (not c7))
(declare-fun c9 () (_ BitVec 64))
(define-fun e10 ((c0 (_ BitVec 64)) (c1 (_ BitVec 64))) (_ BitVec 64) (_ bv512 64))
(define-fun e11 ((c0 (_ BitVec 64)) (c1 (_ BitVec 64))) Bool (bvult c9 (e10 c0 c1)))
(declare-fun c12 () (_ BitVec 64))
(define-fun e13 ((c0 (_ BitVec 64)) (c1 (_ BitVec 64))) (_ BitVec 64) (_ bv256 64))
(define-fun e14 ((c0 (_ BitVec 64)) (c1 (_ BitVec 64))) Bool (bvult c12 (e13 c0 c1)))
(define-fun e15 ((c0 (_ BitVec 64)) (c1 (_ BitVec 64))) Bool (not (e14 c0 c1)))
(declare-fun c16 () (_ BitVec 64))
(define-fun e17 ((c0 (_ BitVec 64)) (c1 (_ BitVec 64))) Bool (bvult c16 (e2 c0 c1)))
(define-fun e18 ((c0 (_ BitVec 64)) (c1 (_ BitVec 64))) (_ BitVec 64) (_ bv5 64))
(declare-fun c19 ((_ BitVec 64)) (_ BitVec 64))
(define-fun e20 ((c0 (_ BitVec 64)) (c1 (_ BitVec 64))) (_ BitVec 64) (c19 c16))
(define-fun e21 ((c0 (_ BitVec 64)) (c1 (_ BitVec 64))) Bool (= (e18 c0 c1) (e20 c0 c1)))
(define-fun e22 ((c0 (_ BitVec 64)) (c1 (_ BitVec 64))) Bool (and (e17 c0 c1) (e21 c0 c1)))
(define-fun e23 ((c0 (_ BitVec 64)) (c1 (_ BitVec 64))) Bool (not (e22 c0 c1)))
(define-fun e24 ((c0 (_ BitVec 64)) (c1 (_ BitVec 64))) Bool (or (e15 c0 c1) (e23 c0 c1)))
(define-fun e25 ((c0 (_ BitVec 64)) (c1 (_ BitVec 64))) Bool (not (e24 c0 c1)))
(define-fun e26 ((c0 (_ BitVec 64)) (c1 (_ BitVec 64))) (_ BitVec 64) (_ bv0 64))
(declare-fun c27 ((_ BitVec 64) (_ BitVec 64)) (_ BitVec 64))
(define-fun e28 ((c0 (_ BitVec 64)) (c1 (_ BitVec 64))) (_ BitVec 64) (c27 c16 c9))
(define-fun e29 ((c0 (_ BitVec 64)) (c1 (_ BitVec 64))) Bool (= (e26 c0 c1) (e28 c0 c1)))
(declare-fun c30 () (_ BitVec 64))
(define-fun e31 ((c0 (_ BitVec 64)) (c1 (_ BitVec 64))) Bool (bvult c30 (e2 c0 c1)))
(define-fun e32 ((c0 (_ BitVec 64)) (c1 (_ BitVec 64))) (_ BitVec 64) (c19 c30))
(define-fun e33 ((c0 (_ BitVec 64)) (c1 (_ BitVec 64))) Bool (= (e26 c0 c1) (e32 c0 c1)))
(define-fun e34 ((c0 (_ BitVec 64)) (c1 (_ BitVec 64))) Bool (and (e31 c0 c1) (e33 c0 c1)))
(declare-fun c35 ((_ BitVec 64)) (_ BitVec 64))
(define-fun e36 ((c0 (_ BitVec 64)) (c1 (_ BitVec 64))) (_ BitVec 64) (c35 c16))
(define-fun e37 ((c0 (_ BitVec 64)) (c1 (_ BitVec 64))) (_ BitVec 64) (_ bv2 64))
(define-fun e38 ((c0 (_ BitVec 64)) (c1 (_ BitVec 64))) (_ BitVec 64) (c27 (e36 c0 c1) (e37 c0 c1)))
(define-fun e39 ((c0 (_ BitVec 64)) (c1 (_ BitVec 64))) Bool (= (e26 c0 c1) (e38 c0 c1)))
(define-fun e40 ((c0 (_ BitVec 64)) (c1 (_ BitVec 64))) Bool (and (e8 c0 c1) (e11 c0 c1) (e25 c0 c1) (e29 c0 c1) (e34 c0 c1) (e39 c0 c1)))
(define-fun e41 ((c0 (_ BitVec 64)) (c1 (_ BitVec 64))) Bool (= c0 (e36 c0 c1)))
(define-fun e42 ((c0 (_ BitVec 64)) (c1 (_ BitVec 64))) Bool (= c30 c1))
(define-fun e43 ((c0 (_ BitVec 64)) (c1 (_ BitVec 64))) Bool (and (e41 c0 c1) (e42 c0 c1)))
(declare-fun c44 ((_ BitVec 64)) (_ BitVec 64))
(define-fun e45 ((c0 (_ BitVec 64)) (c1 (_ BitVec 64))) (_ BitVec 64) (c44 (e36 c0 c1)))
(declare-fun c46 ((_ BitVec 64) (_ BitVec 64)) (_ BitVec 64))
(define-fun e47 ((c0 (_ BitVec 64)) (c1 (_ BitVec 64))) (_ BitVec 64) (c46 (e36 c0 c1) (e45 c0 c1)))
(define-fun e48 ((c0 (_ BitVec 64)) (c1 (_ BitVec 64))) Bool (= c1 (e47 c0 c1)))
(define-fun e49 ((c0 (_ BitVec 64)) (c1 (_ BitVec 64))) Bool (and (e41 c0 c1) (e48 c0 c1)))
(declare-fun c50 ((_ BitVec 64) (_ BitVec 64)) (_ BitVec 64))
(define-fun e51 ((c0 (_ BitVec 64)) (c1 (_ BitVec 64))) (_ BitVec 64) (c50 (e36 c0 c1) c30))
(define-fun e52 ((c0 (_ BitVec 64)) (c1 (_ BitVec 64))) (_ BitVec 64) (c50 c0 c1))
(define-fun e53 ((c0 (_ BitVec 64)) (c1 (_ BitVec 64))) (_ BitVec 64) (ite (e49 c0 c1) (e51 c0 c1) (e52 c0 c1)))
(define-fun e54 ((c0 (_ BitVec 64)) (c1 (_ BitVec 64))) (_ BitVec 64) (ite (e43 c0 c1) (e45 c0 c1) (e53 c0 c1)))
(define-fun e55 ((c0 (_ BitVec 64)) (c1 (_ BitVec 64))) Bool (not (e11 c0 c1)))
(define-fun e56 ((c0 (_ BitVec 64)) (c1 (_ BitVec 64))) Bool (not (e29 c0 c1)))
(define-fun e57 ((c0 (_ BitVec 64)) (c1 (_ BitVec 64))) Bool (not (e31 c0 c1)))
(define-fun e58 ((c0 (_ BitVec 64)) (c1 (_ BitVec 64))) Bool (not (e34 c0 c1)))
(define-fun e59 ((c0 (_ BitVec 64)) (c1 (_ BitVec 64))) Bool (not (e39 c0 c1)))
(define-fun e60 ((c0 (_ BitVec 64)) (c1 (_ BitVec 64))) Bool (and (e34 c0 c1) (e59 c0 c1)))
(define-fun e61 ((c0 (_ BitVec 64)) (c1 (_ BitVec 64))) Bool (or (e58 c0 c1) (e60 c0 c1)))
(define-fun e62 ((c0 (_ BitVec 64)) (c1 (_ BitVec 64))) Bool (and (e31 c0 c1) (e61 c0 c1)))
(define-fun e63 ((c0 (_ BitVec 64)) (c1 (_ BitVec 64))) Bool (or (e57 c0 c1) (e62 c0 c1)))
(define-fun e64 ((c0 (_ BitVec 64)) (c1 (_ BitVec 64))) Bool (and (e29 c0 c1) (e63 c0 c1)))
(define-fun e65 ((c0 (_ BitVec 64)) (c1 (_ BitVec 64))) Bool (or (e56 c0 c1) (e64 c0 c1)))
(define-fun e66 ((c0 (_ BitVec 64)) (c1 (_ BitVec 64))) Bool (and (e25 c0 c1) (e65 c0 c1)))
(define-fun e67 ((c0 (_ BitVec 64)) (c1 (_ BitVec 64))) Bool (or (e24 c0 c1) (e66 c0 c1)))
(define-fun e68 ((c0 (_ BitVec 64)) (c1 (_ BitVec 64))) Bool (and (e11 c0 c1) (e67 c0 c1)))
(define-fun e69 ((c0 (_ BitVec 64)) (c1 (_ BitVec 64))) Bool (or (e55 c0 c1) (e68 c0 c1)))
(define-fun e70 ((c0 (_ BitVec 64)) (c1 (_ BitVec 64))) Bool (and (e8 c0 c1) (e69 c0 c1)))
(define-fun e71 ((c0 (_ BitVec 64)) (c1 (_ BitVec 64))) Bool (or c7 (e70 c0 c1)))
(define-fun e72 ((c0 (_ BitVec 64)) (c1 (_ BitVec 64))) (_ BitVec 64) (bvor (ite (e40 c0 c1) (e54 c0 c1) (_ bv0 64)) (ite (e71 c0 c1) (e52 c0 c1) (_ bv0 64))))
(define-fun e73 ((c0 (_ BitVec 64)) (c1 (_ BitVec 64))) Bool (bvult (e72 c0 c1) (e2 c0 c1)))
(define-fun e74 ((c0 (_ BitVec 64)) (c1 (_ BitVec 64))) Bool (or (e6 c0 c1) (e73 c0 c1)))
(define-fun e75 () Bool (forall ((c0 (_ BitVec 64)) (c1 (_ BitVec 64))) (e74 c0 c1)))
(define-fun e77 ((c0 (_ BitVec 64)) (c1 (_ BitVec 64)) (c76 (_ BitVec 64))) (_ BitVec 64) (_ bv1024 64))
(define-fun e78 ((c0 (_ BitVec 64)) (c1 (_ BitVec 64)) (c76 (_ BitVec 64))) Bool (bvult c0 (e77 c0 c1 c76)))
(define-fun e79 ((c0 (_ BitVec 64)) (c1 (_ BitVec 64)) (c76 (_ BitVec 64))) Bool (bvult c1 (e77 c0 c1 c76)))
(define-fun e80 ((c0 (_ BitVec 64)) (c1 (_ BitVec 64)) (c76 (_ BitVec 64))) Bool (bvult c76 (e77 c0 c1 c76)))
(define-fun e81 ((c0 (_ BitVec 64)) (c1 (_ BitVec 64)) (c76 (_ BitVec 64))) Bool (and (e78 c0 c1 c76) (e79 c0 c1 c76) (e80 c0 c1 c76)))
(define-fun e82 ((c0 (_ BitVec 64)) (c1 (_ BitVec 64)) (c76 (_ BitVec 64))) Bool (not (e81 c0 c1 c76)))
(define-fun e83 ((c0 (_ BitVec 64)) (c1 (_ BitVec 64)) (c76 (_ BitVec 64))) Bool (not c7))
(define-fun e84 ((c0 (_ BitVec 64)) (c1 (_ BitVec 64)) (c76 (_ BitVec 64))) (_ BitVec 64) (_ bv512 64))
(define-fun e85 ((c0 (_ BitVec 64)) (c1 (_ BitVec 64)) (c76 (_ BitVec 64))) Bool (bvult c9 (e84 c0 c1 c76)))
(define-fun e86 ((c0 (_ BitVec 64)) (c1 (_ BitVec 64)) (c76 (_ BitVec 64))) (_ BitVec 64) (_ bv256 64))
(define-fun e87 ((c0 (_ BitVec 64)) (c1 (_ BitVec 64)) (c76 (_ BitVec 64))) Bool (bvult c12 (e86 c0 c1 c76)))
(define-fun e88 ((c0 (_ BitVec 64)) (c1 (_ BitVec 64)) (c76 (_ BitVec 64))) Bool (not (e87 c0 c1 c76)))
(define-fun e89 ((c0 (_ BitVec 64)) (c1 (_ BitVec 64)) (c76 (_ BitVec 64))) Bool (bvult c16 (e77 c0 c1 c76)))
(define-fun e90 ((c0 (_ BitVec 64)) (c1 (_ BitVec 64)) (c76 (_ BitVec 64))) (_ BitVec 64) (_ bv5 64))
(define-fun e91 ((c0 (_ BitVec 64)) (c1 (_ BitVec 64)) (c76 (_ BitVec 64))) (_ BitVec 64) (c19 c16))
(define-fun e92 ((c0 (_ BitVec 64)) (c1 (_ BitVec 64)) (c76 (_ BitVec 64))) Bool (= (e90 c0 c1 c76) (e91 c0 c1 c76)))
(define-fun e93 ((c0 (_ BitVec 64)) (c1 (_ BitVec 64)) (c76 (_ BitVec 64))) Bool (and (e89 c0 c1 c76) (e92 c0 c1 c76)))
(define-fun e94 ((c0 (_ BitVec 64)) (c1 (_ BitVec 64)) (c76 (_ BitVec 64))) Bool (not (e93 c0 c1 c76)))
(define-fun e95 ((c0 (_ BitVec 64)) (c1 (_ BitVec 64)) (c76 (_ BitVec 64))) Bool (or (e88 c0 c1 c76) (e94 c0 c1 c76)))
(define-fun e96 ((c0 (_ BitVec 64)) (c1 (_ BitVec 64)) (c76 (_ BitVec 64))) Bool (not (e95 c0 c1 c76)))
(define-fun e97 ((c0 (_ BitVec 64)) (c1 (_ BitVec 64)) (c76 (_ BitVec 64))) (_ BitVec 64) (_ bv0 64))
(define-fun e98 ((c0 (_ BitVec 64)) (c1 (_ BitVec 64)) (c76 (_ BitVec 64))) (_ BitVec 64) (c27 c16 c9))
(define-fun e99 ((c0 (_ BitVec 64)) (c1 (_ BitVec 64)) (c76 (_ BitVec 64))) Bool (= (e97 c0 c1 c76) (e98 c0 c1 c76)))
(define-fun e100 ((c0 (_ BitVec 64)) (c1 (_ BitVec 64)) (c76 (_ BitVec 64))) Bool (bvult c30 (e77 c0 c1 c76)))
(define-fun e101 ((c0 (_ BitVec 64)) (c1 (_ BitVec 64)) (c76 (_ BitVec 64))) (_ BitVec 64) (c19 c30))
(define-fun e102 ((c0 (_ BitVec 64)) (c1 (_ BitVec 64)) (c76 (_ BitVec 64))) Bool (= (e97 c0 c1 c76) (e101 c0 c1 c76)))
(define-fun e103 ((c0 (_ BitVec 64)) (c1 (_ BitVec 64)) (c76 (_ BitVec 64))) Bool (and (e100 c0 c1 c76) (e102 c0 c1 c76)))
(define-fun e104 ((c0 (_ BitVec 64)) (c1 (_ BitVec 64)) (c76 (_ BitVec 64))) (_ BitVec 64) (c35 c16))
(define-fun e105 ((c0 (_ BitVec 64)) (c1 (_ BitVec 64)) (c76 (_ BitVec 64))) (_ BitVec 64) (_ bv2 64))
(define-fun e106 ((c0 (_ BitVec 64)) (c1 (_ BitVec 64)) (c76 (_ BitVec 64))) (_ BitVec 64) (c27 (e104 c0 c1 c76) (e105 c0 c1 c76)))
(define-fun e107 ((c0 (_ BitVec 64)) (c1 (_ BitVec 64)) (c76 (_ BitVec 64))) Bool (= (e97 c0 c1 c76) (e106 c0 c1 c76)))
(define-fun e108 ((c0 (_ BitVec 64)) (c1 (_ BitVec 64)) (c76 (_ BitVec 64))) Bool (and (e83 c0 c1 c76) (e85 c0 c1 c76) (e96 c0 c1 c76) (e99 c0 c1 c76) (e103 c0 c1 c76) (e107 c0 c1 c76)))
(define-fun e109 ((c0 (_ BitVec 64)) (c1 (_ BitVec 64)) (c76 (_ BitVec 64))) Bool (= c0 (e104 c0 c1 c76)))
(define-fun e110 ((c0 (_ BitVec 64)) (c1 (_ BitVec 64)) (c76 (_ BitVec 64))) (_ BitVec 64) (c44 (e104 c0 c1 c76)))
(define-fun e111 ((c0 (_ BitVec 64)) (c1 (_ BitVec 64)) (c76 (_ BitVec 64))) Bool (= c76 (e110 c0 c1 c76)))
(define-fun e112 ((c0 (_ BitVec 64)) (c1 (_ BitVec 64)) (c76 (_ BitVec 64))) Bool (and (e109 c0 c1 c76) (e111 c0 c1 c76)))
(define-fun e113 ((c0 (_ BitVec 64)) (c1 (_ BitVec 64)) (c76 (_ BitVec 64))) (_ BitVec 64) (c50 (e104 c0 c1 c76) c30))
(define-fun e114 ((c0 (_ BitVec 64)) (c1 (_ BitVec 64)) (c76 (_ BitVec 64))) Bool (= c76 (e113 c0 c1 c76)))
(define-fun e115 ((c0 (_ BitVec 64)) (c1 (_ BitVec 64)) (c76 (_ BitVec 64))) Bool (and (e109 c0 c1 c76) (e114 c0 c1 c76)))
(define-fun e116 ((c0 (_ BitVec 64)) (c1 (_ BitVec 64)) (c76 (_ BitVec 64))) (_ BitVec 64) (c46 (e104 c0 c1 c76) (e110 c0 c1 c76)))
(define-fun e117 ((c0 (_ BitVec 64)) (c1 (_ BitVec 64)) (c76 (_ BitVec 64))) (_ BitVec 64) (c46 c0 c76))
(define-fun e118 ((c0 (_ BitVec 64)) (c1 (_ BitVec 64)) (c76 (_ BitVec 64))) (_ BitVec 64) (ite (e115 c0 c1 c76) (e116 c0 c1 c76) (e117 c0 c1 c76)))
(define-fun e119 ((c0 (_ BitVec 64)) (c1 (_ BitVec 64)) (c76 (_ BitVec 64))) (_ BitVec 64) (ite (e112 c0 c1 c76) c30 (e118 c0 c1 c76)))
(define-fun e120 ((c0 (_ BitVec 64)) (c1 (_ BitVec 64)) (c76 (_ BitVec 64))) Bool (not (e85 c0 c1 c76)))
(define-fun e121 ((c0 (_ BitVec 64)) (c1 (_ BitVec 64)) (c76 (_ BitVec 64))) Bool (not (e99 c0 c1 c76)))
(define-fun e122 ((c0 (_ BitVec 64)) (c1 (_ BitVec 64)) (c76 (_ BitVec 64))) Bool (not (e100 c0 c1 c76)))
(define-fun e123 ((c0 (_ BitVec 64)) (c1 (_ BitVec 64)) (c76 (_ BitVec 64))) Bool (not (e103 c0 c1 c76)))
(define-fun e124 ((c0 (_ BitVec 64)) (c1 (_ BitVec 64)) (c76 (_ BitVec 64))) Bool (not (e107 c0 c1 c76)))
(define-fun e125 ((c0 (_ BitVec 64)) (c1 (_ BitVec 64)) (c76 (_ BitVec 64))) Bool (and (e103 c0 c1 c76) (e124 c0 c1 c76)))
(define-fun e126 ((c0 (_ BitVec 64)) (c1 (_ BitVec 64)) (c76 (_ BitVec 64))) Bool (or (e123 c0 c1 c76) (e125 c0 c1 c76)))
(define-fun e127 ((c0 (_ BitVec 64)) (c1 (_ BitVec 64)) (c76 (_ BitVec 64))) Bool (and (e100 c0 c1 c76) (e126 c0 c1 c76)))
(define-fun e128 ((c0 (_ BitVec 64)) (c1 (_ BitVec 64)) (c76 (_ BitVec 64))) Bool (or (e122 c0 c1 c76) (e127 c0 c1 c76)))
(define-fun e129 ((c0 (_ BitVec 64)) (c1 (_ BitVec 64)) (c76 (_ BitVec 64))) Bool (and (e99 c0 c1 c76) (e128 c0 c1 c76)))
(define-fun e130 ((c0 (_ BitVec 64)) (c1 (_ BitVec 64)) (c76 (_ BitVec 64))) Bool (or (e121 c0 c1 c76) (e129 c0 c1 c76)))
(define-fun e131 ((c0 (_ BitVec 64)) (c1 (_ BitVec 64)) (c76 (_ BitVec 64))) Bool (and (e96 c0 c1 c76) (e130 c0 c1 c76)))
(define-fun e132 ((c0 (_ BitVec 64)) (c1 (_ BitVec 64)) (c76 (_ BitVec 64))) Bool (or (e95 c0 c1 c76) (e131 c0 c1 c76)))
(define-fun e133 ((c0 (_ BitVec 64)) (c1 (_ BitVec 64)) (c76 (_ BitVec 64))) Bool (and (e85 c0 c1 c76) (e132 c0 c1 c76)))
(define-fun e134 ((c0 (_ BitVec 64)) (c1 (_ BitVec 64)) (c76 (_ BitVec 64))) Bool (or (e120 c0 c1 c76) (e133 c0 c1 c76)))
(define-fun e135 ((c0 (_ BitVec 64)) (c1 (_ BitVec 64)) (c76 (_ BitVec 64))) Bool (and (e83 c0 c1 c76) (e134 c0 c1 c76)))
(define-fun e136 ((c0 (_ BitVec 64)) (c1 (_ BitVec 64)) (c76 (_ BitVec 64))) Bool (or c7 (e135 c0 c1 c76)))
(define-fun e137 ((c0 (_ BitVec 64)) (c1 (_ BitVec 64)) (c76 (_ BitVec 64))) (_ BitVec 64) (bvor (ite (e108 c0 c1 c76) (e119 c0 c1 c76) (_ bv0 64)) (ite (e136 c0 c1 c76) (e117 c0 c1 c76) (_ bv0 64))))
(define-fun e138 ((c0 (_ BitVec 64)) (c1 (_ BitVec 64)) (c76 (_ BitVec 64))) Bool (= c30 (e137 c0 c1 c76)))
(define-fun e139 ((c0 (_ BitVec 64)) (c1 (_ BitVec 64)) (c76 (_ BitVec 64))) Bool (and (e109 c0 c1 c76) (e138 c0 c1 c76)))
(define-fun e140 ((c0 (_ BitVec 64)) (c1 (_ BitVec 64)) (c76 (_ BitVec 64))) Bool (= (e116 c0 c1 c76) (e137 c0 c1 c76)))
(define-fun e141 ((c0 (_ BitVec 64)) (c1 (_ BitVec 64)) (c76 (_ BitVec 64))) Bool (and (e109 c0 c1 c76) (e140 c0 c1 c76)))
(define-fun e142 ((c0 (_ BitVec 64)) (c1 (_ BitVec 64)) (c76 (_ BitVec 64))) (_ BitVec 64) (c50 c0 (e137 c0 c1 c76)))
(define-fun e143 ((c0 (_ BitVec 64)) (c1 (_ BitVec 64)) (c76 (_ BitVec 64))) (_ BitVec 64) (ite (e141 c0 c1 c76) (e113 c0 c1 c76) (e142 c0 c1 c76)))
(define-fun e144 ((c0 (_ BitVec 64)) (c1 (_ BitVec 64)) (c76 (_ BitVec 64))) (_ BitVec 64) (ite (e139 c0 c1 c76) (e110 c0 c1 c76) (e143 c0 c1 c76)))
(define-fun e145 ((c0 (_ BitVec 64)) (c1 (_ BitVec 64)) (c76 (_ BitVec 64))) (_ BitVec 64) (bvor (ite (e108 c0 c1 c76) (e144 c0 c1 c76) (_ bv0 64)) (ite (e136 c0 c1 c76) (e142 c0 c1 c76) (_ bv0 64))))
(define-fun e146 ((c0 (_ BitVec 64)) (c1 (_ BitVec 64)) (c76 (_ BitVec 64))) Bool (= c76 (e145 c0 c1 c76)))
(define-fun e147 ((c0 (_ BitVec 64)) (c1 (_ BitVec 64)) (c76 (_ BitVec 64))) Bool (= c30 c1))
(define-fun e148 ((c0 (_ BitVec 64)) (c1 (_ BitVec 64)) (c76 (_ BitVec 64))) Bool (and (e109 c0 c1 c76) (e147 c0 c1 c76)))
(define-fun e149 ((c0 (_ BitVec 64)) (c1 (_ BitVec 64)) (c76 (_ BitVec 64))) Bool (= c1 (e116 c0 c1 c76)))
(define-fun e150 ((c0 (_ BitVec 64)) (c1 (_ BitVec 64)) (c76 (_ BitVec 64))) Bool (and (e109 c0 c1 c76) (e149 c0 c1 c76)))
(define-fun e151 ((c0 (_ BitVec 64)) (c1 (_ BitVec 64)) (c76 (_ BitVec 64))) (_ BitVec 64) (c50 c0 c1))
(define-fun e152 ((c0 (_ BitVec 64)) (c1 (_ BitVec 64)) (c76 (_ BitVec 64))) (_ BitVec 64) (ite (e150 c0 c1 c76) (e113 c0 c1 c76) (e151 c0 c1 c76)))
(define-fun e153 ((c0 (_ BitVec 64)) (c1 (_ BitVec 64)) (c76 (_ BitVec 64))) (_ BitVec 64) (ite (e148 c0 c1 c76) (e110 c0 c1 c76) (e152 c0 c1 c76)))
(define-fun e154 ((c0 (_ BitVec 64)) (c1 (_ BitVec 64)) (c76 (_ BitVec 64))) (_ BitVec 64) (bvor (ite (e108 c0 c1 c76) (e153 c0 c1 c76) (_ bv0 64)) (ite (e136 c0 c1 c76) (e151 c0 c1 c76) (_ bv0 64))))
(define-fun e155 ((c0 (_ BitVec 64)) (c1 (_ BitVec 64)) (c76 (_ BitVec 64))) Bool (= (e110 c0 c1 c76) (e154 c0 c1 c76)))
(define-fun e156 ((c0 (_ BitVec 64)) (c1 (_ BitVec 64)) (c76 (_ BitVec 64))) Bool (and (e109 c0 c1 c76) (e155 c0 c1 c76)))
(define-fun e157 ((c0 (_ BitVec 64)) (c1 (_ BitVec 64)) (c76 (_ BitVec 64))) Bool (= (e113 c0 c1 c76) (e154 c0 c1 c76)))
(define-fun e158 ((c0 (_ BitVec 64)) (c1 (_ BitVec 64)) (c76 (_ BitVec 64))) Bool (and (e109 c0 c1 c76) (e157 c0 c1 c76)))
(define-fun e159 ((c0 (_ BitVec 64)) (c1 (_ BitVec 64)) (c76 (_ BitVec 64))) (_ BitVec 64) (c46 c0 (e154 c0 c1 c76)))
(define-fun e160 ((c0 (_ BitVec 64)) (c1 (_ BitVec 64)) (c76 (_ BitVec 64))) (_ BitVec 64) (ite (e158 c0 c1 c76) (e116 c0 c1 c76) (e159 c0 c1 c76)))
(define-fun e161 ((c0 (_ BitVec 64)) (c1 (_ BitVec 64)) (c76 (_ BitVec 64))) (_ BitVec 64) (ite (e156 c0 c1 c76) c30 (e160 c0 c1 c76)))
(define-fun e162 ((c0 (_ BitVec 64)) (c1 (_ BitVec 64)) (c76 (_ BitVec 64))) (_ BitVec 64) (bvor (ite (e108 c0 c1 c76) (e161 c0 c1 c76) (_ bv0 64)) (ite (e136 c0 c1 c76) (e159 c0 c1 c76) (_ bv0 64))))
(define-fun e163 ((c0 (_ BitVec 64)) (c1 (_ BitVec 64)) (c76 (_ BitVec 64))) Bool (= c1 (e162 c0 c1 c76)))
(define-fun e164 ((c0 (_ BitVec 64)) (c1 (_ BitVec 64)) (c76 (_ BitVec 64))) Bool (and (e146 c0 c1 c76) (e163 c0 c1 c76)))
(define-fun e165 ((c0 (_ BitVec 64)) (c1 (_ BitVec 64)) (c76 (_ BitVec 64))) Bool (or (e82 c0 c1 c76) (e164 c0 c1 c76)))
(define-fun e166 () Bool (forall ((c0 (_ BitVec 64)) (c1 (_ BitVec 64)) (c76 (_ BitVec 64))) (e165 c0 c1 c76)))
(define-fun e167 ((c0 (_ BitVec 64))) (_ BitVec 64) (_ bv0 64))
(define-fun e168 ((c0 (_ BitVec 64))) Bool (not c7))
(define-fun e169 ((c0 (_ BitVec 64))) (_ BitVec 64) (_ bv512 64))
(define-fun e170 ((c0 (_ BitVec 64))) Bool (bvult c9 (e169 c0)))
(define-fun e171 ((c0 (_ BitVec 64))) (_ BitVec 64) (_ bv256 64))
(define-fun e172 ((c0 (_ BitVec 64))) Bool (bvult c12 (e171 c0)))
(define-fun e173 ((c0 (_ BitVec 64))) Bool (not (e172 c0)))
(define-fun e174 ((c0 (_ BitVec 64))) (_ BitVec 64) (_ bv1024 64))
(define-fun e175 ((c0 (_ BitVec 64))) Bool (bvult c16 (e174 c0)))
(define-fun e176 ((c0 (_ BitVec 64))) (_ BitVec 64) (_ bv5 64))
(define-fun e177 ((c0 (_ BitVec 64))) (_ BitVec 64) (c19 c16))
(define-fun e178 ((c0 (_ BitVec 64))) Bool (= (e176 c0) (e177 c0)))
(define-fun e179 ((c0 (_ BitVec 64))) Bool (and (e175 c0) (e178 c0)))
(define-fun e180 ((c0 (_ BitVec 64))) Bool (not (e179 c0)))
(define-fun e181 ((c0 (_ BitVec 64))) Bool (or (e173 c0) (e180 c0)))
(define-fun e182 ((c0 (_ BitVec 64))) Bool (not (e181 c0)))
(define-fun e183 ((c0 (_ BitVec 64))) (_ BitVec 64) (c27 c16 c9))
(define-fun e184 ((c0 (_ BitVec 64))) Bool (= (e167 c0) (e183 c0)))
(define-fun e185 ((c0 (_ BitVec 64))) Bool (bvult c30 (e174 c0)))
(define-fun e186 ((c0 (_ BitVec 64))) (_ BitVec 64) (c19 c30))
(define-fun e187 ((c0 (_ BitVec 64))) Bool (= (e167 c0) (e186 c0)))
(define-fun e188 ((c0 (_ BitVec 64))) Bool (and (e185 c0) (e187 c0)))
(define-fun e189 ((c0 (_ BitVec 64))) (_ BitVec 64) (c35 c16))
(define-fun e190 ((c0 (_ BitVec 64))) (_ BitVec 64) (_ bv2 64))
(define-fun e191 ((c0 (_ BitVec 64))) (_ BitVec 64) (c27 (e189 c0) (e190 c0)))
(define-fun e192 ((c0 (_ BitVec 64))) Bool (= (e167 c0) (e191 c0)))
(define-fun e193 ((c0 (_ BitVec 64))) Bool (and (e168 c0) (e170 c0) (e182 c0) (e184 c0) (e188 c0) (e192 c0)))
(define-fun e194 ((c0 (_ BitVec 64))) Bool (= c0 (e189 c0)))
(define-fun e195 ((c0 (_ BitVec 64))) Bool (= c30 c0))
(define-fun e196 ((c0 (_ BitVec 64))) Bool (and (e194 c0) (e195 c0)))
(define-fun e197 ((c0 (_ BitVec 64))) (_ BitVec 64) (c44 (e189 c0)))
(define-fun e198 ((c0 (_ BitVec 64))) (_ BitVec 64) (c46 (e189 c0) (e197 c0)))
(define-fun e199 ((c0 (_ BitVec 64))) Bool (= c0 (e198 c0)))
(define-fun e200 ((c0 (_ BitVec 64))) Bool (and (e194 c0) (e199 c0)))
(define-fun e201 ((c0 (_ BitVec 64))) (_ BitVec 64) (c50 (e189 c0) c30))
(define-fun e202 ((c0 (_ BitVec 64))) (_ BitVec 64) (c50 c0 c0))
(define-fun e203 ((c0 (_ BitVec 64))) (_ BitVec 64) (ite (e200 c0) (e201 c0) (e202 c0)))
(define-fun e204 ((c0 (_ BitVec 64))) (_ BitVec 64) (ite (e196 c0) (e197 c0) (e203 c0)))
(define-fun e205 ((c0 (_ BitVec 64))) Bool (not (e170 c0)))
(define-fun e206 ((c0 (_ BitVec 64))) Bool (not (e184 c0)))
(define-fun e207 ((c0 (_ BitVec 64))) Bool (not (e185 c0)))
(define-fun e208 ((c0 (_ BitVec 64))) Bool (not (e188 c0)))
(define-fun e209 ((c0 (_ BitVec 64))) Bool (not (e192 c0)))
(define-fun e210 ((c0 (_ BitVec 64))) Bool (and (e188 c0) (e209 c0)))
(define-fun e211 ((c0 (_ BitVec 64))) Bool (or (e208 c0) (e210 c0)))
(define-fun e212 ((c0 (_ BitVec 64))) Bool (and (e185 c0) (e211 c0)))
(define-fun e213 ((c0 (_ BitVec 64))) Bool (or (e207 c0) (e212 c0)))
(define-fun e214 ((c0 (_ BitVec 64))) Bool (and (e184 c0) (e213 c0)))
(define-fun e215 ((c0 (_ BitVec 64))) Bool (or (e206 c0) (e214 c0)))
(define-fun e216 ((c0 (_ BitVec 64))) Bool (and (e182 c0) (e215 c0)))
(define-fun e217 ((c0 (_ BitVec 64))) Bool (or (e181 c0) (e216 c0)))
(define-fun e218 ((c0 (_ BitVec 64))) Bool (and (e170 c0) (e217 c0)))
(define-fun e219 ((c0 (_ BitVec 64))) Bool (or (e205 c0) (e218 c0)))
(define-fun e220 ((c0 (_ BitVec 64))) Bool (and (e168 c0) (e219 c0)))
(define-fun e221 ((c0 (_ BitVec 64))) Bool (or c7 (e220 c0)))
(define-fun e222 ((c0 (_ BitVec 64))) (_ BitVec 64) (bvor (ite (e193 c0) (e204 c0) (_ bv0 64)) (ite (e221 c0) (e202 c0) (_ bv0 64))))
(define-fun e223 ((c0 (_ BitVec 64))) Bool (= (e167 c0) (e222 c0)))
(define-fun e224 ((c0 (_ BitVec 64))) Bool (= (e167 c0) (e197 c0)))
(define-fun e225 ((c0 (_ BitVec 64))) Bool (and (e194 c0) (e224 c0)))
(define-fun e226 ((c0 (_ BitVec 64))) Bool (= (e167 c0) (e201 c0)))
(define-fun e227 ((c0 (_ BitVec 64))) Bool (and (e194 c0) (e226 c0)))
(define-fun e228 ((c0 (_ BitVec 64))) (_ BitVec 64) (c46 c0 (e167 c0)))
(define-fun e229 ((c0 (_ BitVec 64))) (_ BitVec 64) (ite (e227 c0) (e198 c0) (e228 c0)))
(define-fun e230 ((c0 (_ BitVec 64))) (_ BitVec 64) (ite (e225 c0) c30 (e229 c0)))
(define-fun e231 ((c0 (_ BitVec 64))) (_ BitVec 64) (bvor (ite (e193 c0) (e230 c0) (_ bv0 64)) (ite (e221 c0) (e228 c0) (_ bv0 64))))
(define-fun e232 ((c0 (_ BitVec 64))) Bool (= c0 (e231 c0)))
(define-fun e233 ((c0 (_ BitVec 64))) Bool (and (e223 c0) (e232 c0)))
(define-fun e234 ((c0 (_ BitVec 64))) Bool (bvult c0 (e174 c0)))
(define-fun e235 ((c0 (_ BitVec 64))) (_ BitVec 64) (c35 c0))
(define-fun e236 ((c0 (_ BitVec 64))) (_ BitVec 64) (ite (e195 c0) (e189 c0) (e235 c0)))
(define-fun e237 ((c0 (_ BitVec 64))) (_ BitVec 64) (bvor (ite (e193 c0) (e236 c0) (_ bv0 64)) (ite (e221 c0) (e235 c0) (_ bv0 64))))
(define-fun e238 ((c0 (_ BitVec 64))) Bool (= c0 (e237 c0)))
(define-fun e239 ((c0 (_ BitVec 64))) (_ BitVec 64) (_ bv6 64))
(define-fun e240 ((c0 (_ BitVec 64))) (_ BitVec 64) (c19 c0))
(define-fun e241 ((c0 (_ BitVec 64))) (_ BitVec 64) (ite (e195 c0) (e239 c0) (e240 c0)))
(define-fun e242 ((c0 (_ BitVec 64))) (_ BitVec 64) (bvor (ite (e193 c0) (e241 c0) (_ bv0 64)) (ite (e221 c0) (e240 c0) (_ bv0 64))))
(define-fun e243 ((c0 (_ BitVec 64))) Bool (= (e167 c0) (e242 c0)))
(define-fun e244 ((c0 (_ BitVec 64))) Bool (and (e234 c0) (e243 c0)))
(define-fun e245 ((c0 (_ BitVec 64))) Bool (not (e244 c0)))
(define-fun e246 ((c0 (_ BitVec 64))) Bool (and (e238 c0) (e245 c0)))
(define-fun e247 ((c0 (_ BitVec 64))) Bool (and (e234 c0) (e246 c0)))
(define-fun e248 ((c0 (_ BitVec 64))) Bool (not (e247 c0)))
(define-fun e249 ((c0 (_ BitVec 64))) Bool (or (e233 c0) (e248 c0)))
(define-fun e250 () Bool (forall ((c0 (_ BitVec 64))) (e249 c0)))
(define-fun e251 ((c0 (_ BitVec 64)) (c1 (_ BitVec 64))) (_ BitVec 64) (c35 c1))
(define-fun e252 ((c0 (_ BitVec 64)) (c1 (_ BitVec 64))) (_ BitVec 64) (ite (e42 c0 c1) (e36 c0 c1) (e251 c0 c1)))
(define-fun e253 ((c0 (_ BitVec 64)) (c1 (_ BitVec 64))) (_ BitVec 64) (bvor (ite (e40 c0 c1) (e252 c0 c1) (_ bv0 64)) (ite (e71 c0 c1) (e251 c0 c1) (_ bv0 64))))
(define-fun e254 ((c0 (_ BitVec 64)) (c1 (_ BitVec 64))) Bool (= c0 (e253 c0 c1)))
(define-fun e255 ((c0 (_ BitVec 64)) (c1 (_ BitVec 64))) (_ BitVec 64) (_ bv6 64))
(define-fun e256 ((c0 (_ BitVec 64)) (c1 (_ BitVec 64))) (_ BitVec 64) (c19 c1))
(define-fun e257 ((c0 (_ BitVec 64)) (c1 (_ BitVec 64))) (_ BitVec 64) (ite (e42 c0 c1) (e255 c0 c1) (e256 c0 c1)))
(define-fun e258 ((c0 (_ BitVec 64)) (c1 (_ BitVec 64))) (_ BitVec 64) (bvor (ite (e40 c0 c1) (e257 c0 c1) (_ bv0 64)) (ite (e71 c0 c1) (e256 c0 c1) (_ bv0 64))))
(define-fun e259 ((c0 (_ BitVec 64)) (c1 (_ BitVec 64))) Bool (= (e26 c0 c1) (e258 c0 c1)))
(define-fun e260 ((c0 (_ BitVec 64)) (c1 (_ BitVec 64))) Bool (and (e4 c0 c1) (e259 c0 c1)))
(define-fun e261 ((c0 (_ BitVec 64)) (c1 (_ BitVec 64))) Bool (not (e260 c0 c1)))
(define-fun e262 ((c0 (_ BitVec 64)) (c1 (_ BitVec 64))) Bool (and (e254 c0 c1) (e261 c0 c1)))
(define-fun e263 ((c0 (_ BitVec 64)) (c1 (_ BitVec 64))) (_ BitVec 64) (_ bv1 64))
(define-fun e264 ((c0 (_ BitVec 64)) (c1 (_ BitVec 64))) (_ BitVec 64) (c44 c0))
(define-fun e265 ((c0 (_ BitVec 64)) (c1 (_ BitVec 64))) (_ BitVec 64) (bvadd (e263 c0 c1) (e264 c0 c1)))
(define-fun e266 ((c0 (_ BitVec 64)) (c1 (_ BitVec 64))) (_ BitVec 64) (ite (e41 c0 c1) (e265 c0 c1) (e264 c0 c1)))
(define-fun e267 ((c0 (_ BitVec 64)) (c1 (_ BitVec 64))) (_ BitVec 64) (bvor (ite (e40 c0 c1) (e266 c0 c1) (_ bv0 64)) (ite (e71 c0 c1) (e264 c0 c1) (_ bv0 64))))
(define-fun e268 ((c0 (_ BitVec 64)) (c1 (_ BitVec 64))) Bool (bvult (e72 c0 c1) (e267 c0 c1)))
(define-fun e269 ((c0 (_ BitVec 64)) (c1 (_ BitVec 64))) Bool (and (=> (e262 c0 c1) (e268 c0 c1)) (=> (e268 c0 c1) (e262 c0 c1))))
(define-fun e270 ((c0 (_ BitVec 64)) (c1 (_ BitVec 64))) Bool (or (e6 c0 c1) (e269 c0 c1)))
(define-fun e271 () Bool (forall ((c0 (_ BitVec 64)) (c1 (_ BitVec 64))) (e270 c0 c1)))
(define-fun e272 ((c0 (_ BitVec 64))) Bool (not (e234 c0)))
(define-fun e273 ((c0 (_ BitVec 64))) (_ BitVec 64) (_ bv1 64))
(define-fun e274 ((c0 (_ BitVec 64))) (_ BitVec 64) (c44 c0))
(define-fun e275 ((c0 (_ BitVec 64))) (_ BitVec 64) (bvadd (e273 c0) (e274 c0)))
(define-fun e276 ((c0 (_ BitVec 64))) (_ BitVec 64) (ite (e194 c0) (e275 c0) (e274 c0)))
(define-fun e277 ((c0 (_ BitVec 64))) (_ BitVec 64) (bvor (ite (e193 c0) (e276 c0) (_ bv0 64)) (ite (e221 c0) (e274 c0) (_ bv0 64))))
(define-fun e278 ((c0 (_ BitVec 64))) Bool (bvule (e277 c0) (e174 c0)))
(define-fun e279 ((c0 (_ BitVec 64))) Bool (or (e272 c0) (e278 c0)))
(define-fun e280 () Bool (forall ((c0 (_ BitVec 64))) (e279 c0)))
(define-fun e281 () Bool (and e75 e166 e250 e271 e280))
(define-fun e283 ((c282 (_ BitVec 64))) (_ BitVec 64) (c35 c282))
(define-fun e284 ((c282 (_ BitVec 64))) Bool (= c282 (e283 c282)))
(define-fun e285 ((c282 (_ BitVec 64))) (_ BitVec 64) (_ bv1024 64))
(define-fun e286 ((c282 (_ BitVec 64))) Bool (bvult c282 (e285 c282)))
(define-fun e287 ((c282 (_ BitVec 64))) (_ BitVec 64) (_ bv1 64))
(define-fun e288 ((c282 (_ BitVec 64))) (_ BitVec 64) (c19 c282))
(define-fun e289 ((c282 (_ BitVec 64))) Bool (= (e287 c282) (e288 c282)))
(define-fun e290 ((c282 (_ BitVec 64))) Bool (and (e286 c282) (e289 c282)))
(define-fun e291 ((c282 (_ BitVec 64))) Bool (not (e290 c282)))
(define-fun e292 ((c282 (_ BitVec 64))) Bool (or (e284 c282) (e291 c282)))
(define-fun e293 () Bool (forall ((c282 (_ BitVec 64))) (e292 c282)))
(define-fun e294 ((c282 (_ BitVec 64))) Bool (bvult (e283 c282) (e285 c282)))
(define-fun e295 ((c282 (_ BitVec 64))) (_ BitVec 64) (_ bv0 64))
(define-fun e296 ((c282 (_ BitVec 64))) Bool (= (e295 c282) (e288 c282)))
(define-fun e297 ((c282 (_ BitVec 64))) Bool (not (e296 c282)))
(define-fun e298 ((c282 (_ BitVec 64))) Bool (and (e286 c282) (e297 c282)))
(define-fun e299 ((c282 (_ BitVec 64))) Bool (not (e298 c282)))
(define-fun e300 ((c282 (_ BitVec 64))) Bool (or (e294 c282) (e299 c282)))
(define-fun e301 () Bool (forall ((c282 (_ BitVec 64))) (e300 c282)))
(declare-fun c302 () (_ BitVec 64))
(define-fun e303 () (_ BitVec 64) (_ bv1024 64))
(define-fun e304 () Bool (bvult c302 e303))
(define-fun e305 () (_ BitVec 64) (_ bv2 64))
(define-fun e306 () (_ BitVec 64) (c19 c302))
(define-fun e307 () Bool (= e305 e306))
(define-fun e308 () Bool (and e304 e307))
(define-fun e309 () Bool (not c7))
(define-fun e310 () Bool (or e308 e309))
(define-fun e311 ((c282 (_ BitVec 64))) (_ BitVec 64) (c44 c282))
(define-fun e312 ((c282 (_ BitVec 64))) Bool (= (e295 c282) (e311 c282)))
(define-fun e313 ((c282 (_ BitVec 64))) Bool (and (e286 c282) (e291 c282)))
(define-fun e314 ((c282 (_ BitVec 64))) Bool (not (e313 c282)))
(define-fun e315 ((c282 (_ BitVec 64))) Bool (or (e312 c282) (e314 c282)))
(define-fun e316 () Bool (forall ((c282 (_ BitVec 64))) (e315 c282)))
(define-fun e317 ((c282 (_ BitVec 64))) (_ BitVec 64) (c27 c282 (e287 c282)))
(define-fun e318 ((c282 (_ BitVec 64))) Bool (= (e311 c282) (e317 c282)))
(define-fun e319 ((c282 (_ BitVec 64))) Bool (or (e291 c282) (e318 c282)))
(define-fun e320 () Bool (forall ((c282 (_ BitVec 64))) (e319 c282)))
(define-fun e321 ((c0 (_ BitVec 64)) (c1 (_ BitVec 64))) Bool (bvult (e52 c0 c1) (e2 c0 c1)))
(define-fun e322 ((c0 (_ BitVec 64)) (c1 (_ BitVec 64))) Bool (or (e321 c0 c1) (e6 c0 c1)))
(define-fun e323 () Bool (forall ((c0 (_ BitVec 64)) (c1 (_ BitVec 64))) (e322 c0 c1)))
(define-fun e324 ((c0 (_ BitVec 64)) (c1 (_ BitVec 64)) (c76 (_ BitVec 64))) (_ BitVec 64) (c50 c0 (e117 c0 c1 c76)))
(define-fun e325 ((c0 (_ BitVec 64)) (c1 (_ BitVec 64)) (c76 (_ BitVec 64))) Bool (= c76 (e324 c0 c1 c76)))
(define-fun e326 ((c0 (_ BitVec 64)) (c1 (_ BitVec 64)) (c76 (_ BitVec 64))) (_ BitVec 64) (c46 c0 (e151 c0 c1 c76)))
(define-fun e327 ((c0 (_ BitVec 64)) (c1 (_ BitVec 64)) (c76 (_ BitVec 64))) Bool (= c1 (e326 c0 c1 c76)))
(define-fun e328 ((c0 (_ BitVec 64)) (c1 (_ BitVec 64)) (c76 (_ BitVec 64))) Bool (and (e325 c0 c1 c76) (e327 c0 c1 c76)))
(define-fun e329 ((c0 (_ BitVec 64)) (c1 (_ BitVec 64)) (c76 (_ BitVec 64))) Bool (or (e328 c0 c1 c76) (e82 c0 c1 c76)))
(define-fun e330 () Bool (forall ((c0 (_ BitVec 64)) (c1 (_ BitVec 64)) (c76 (_ BitVec 64))) (e329 c0 c1 c76)))
(define-fun e331 ((c0 (_ BitVec 64))) Bool (= (e167 c0) (e202 c0)))
(define-fun e332 ((c0 (_ BitVec 64))) Bool (= c0 (e228 c0)))
(define-fun e333 ((c0 (_ BitVec 64))) Bool (and (e331 c0) (e332 c0)))
(define-fun e334 ((c0 (_ BitVec 64))) Bool (= c0 (e235 c0)))
(define-fun e335 ((c0 (_ BitVec 64))) Bool (= (e167 c0) (e240 c0)))
(define-fun e336 ((c0 (_ BitVec 64))) Bool (and (e234 c0) (e335 c0)))
(define-fun e337 ((c0 (_ BitVec 64))) Bool (not (e336 c0)))
(define-fun e338 ((c0 (_ BitVec 64))) Bool (and (e334 c0) (e337 c0)))
(define-fun e339 ((c0 (_ BitVec 64))) Bool (and (e234 c0) (e338 c0)))
(define-fun e340 ((c0 (_ BitVec 64))) Bool (not (e339 c0)))
(define-fun e341 ((c0 (_ BitVec 64))) Bool (or (e333 c0) (e340 c0)))
(define-fun e342 () Bool (forall ((c0 (_ BitVec 64))) (e341 c0)))
(define-fun e343 ((c0 (_ BitVec 64)) (c1 (_ BitVec 64))) Bool (= c0 (e251 c0 c1)))
(define-fun e344 ((c0 (_ BitVec 64)) (c1 (_ BitVec 64))) Bool (= (e26 c0 c1) (e256 c0 c1)))
(define-fun e345 ((c0 (_ BitVec 64)) (c1 (_ BitVec 64))) Bool (and (e4 c0 c1) (e344 c0 c1)))
(define-fun e346 ((c0 (_ BitVec 64)) (c1 (_ BitVec 64))) Bool (not (e345 c0 c1)))
(define-fun e347 ((c0 (_ BitVec 64)) (c1 (_ BitVec 64))) Bool (and (e343 c0 c1) (e346 c0 c1)))
(define-fun e348 ((c0 (_ BitVec 64)) (c1 (_ BitVec 64))) Bool (bvult (e52 c0 c1) (e264 c0 c1)))
(define-fun e349 ((c0 (_ BitVec 64)) (c1 (_ BitVec 64))) Bool (and (=> (e347 c0 c1) (e348 c0 c1)) (=> (e348 c0 c1) (e347 c0 c1))))
(define-fun e350 ((c0 (_ BitVec 64)) (c1 (_ BitVec 64))) Bool (or (e6 c0 c1) (e349 c0 c1)))
(define-fun e351 () Bool (forall ((c0 (_ BitVec 64)) (c1 (_ BitVec 64))) (e350 c0 c1)))
(define-fun e352 ((c0 (_ BitVec 64))) Bool (bvule (e274 c0) (e174 c0)))
(define-fun e353 ((c0 (_ BitVec 64))) Bool (or (e352 c0) (e272 c0)))
(define-fun e354 () Bool (forall ((c0 (_ BitVec 64))) (e353 c0)))
(define-fun e355 () Bool (and e323 e330 e342 e351 e354))
(define-fun e356 () Bool (and e293 e301 e304 e310 e316 e320 e355))
(define-fun e357 () Bool (not e356))
(define-fun e358 () Bool (or e281 e357))
(define-fun e359 () Bool (not e358))
(assert e359)
(check-sat)
